nrow = 8;
ncol = 8;

start_row = 5;
start_col = 5;

delay = [ 1, 9, 3, 1, 2 ];
timelimit = 50;

terrain = [| P, P, C, R, R, F, C, F
           | P, M, M, R, M, C, M, P
           | F, M, P, F, F, P, P, P
           | F, M, P, M, M, R, M, F
           | F, M, P, M, P, F, M, R
           | P, C, P, R, P, F, M, P
           | P, P, P, M, C, F, M, P
           | P, P, P, M, P, P, P, P  |];

Jin = [| true,  false, false, false, false, false, false, false
       | false, false, false, false, false, false, false, false
       | false, false, false, false, false, false, false, false
       | false, false, false, false, false, false, false, false
       | false, false, false, false, false, false, false, false
       | false, false, false, false, false, false, false, false
       | false, false, false, false, false, false, false, false
       | false, false, false, false, false, false, false, false |];

soldier = [| 0,0,0,0,0,0,4,5
           | 0,0,0,5,0,0,0,1
           | 0,0,0,0,1,0,1,2
           | 0,0,0,0,0,1,6,1
           | 0,0,5,3,0,0,2,1
           | 1,4,0,9,9,8,0,1
           | 4,2,0,0,0,2,3,3
           | 0,0,0,0,0,0,0,0 |];

maxstep = 12;
